SYSTEM = ABC
ENCUT = 500
EDIFF = 1.0e-04
EDIFFG = -0.1
IBRION = 0  # Molecular dynamic
ISIF = 2
MDALGO = 2
SMASS = 1

NBLOCK = 1
NWRITE = 1
NELMIN = 2
NELM = 40
NELMDL = -12

ISMEAR = 0
SIGMA = 0.1
LREAL = Auto
ALGO = Fast
IALGO = 48
PREC = Normal
ISYM = 0

ISPIN = 2 
MAGMOM = 
RWIGS = 
TEBEG = 300 # beginning temperature
TEEND = 300 # ending temperature
NSW = 3000 # total steps
POTIM = 3    # timestep(fs)
LWAVE = .FALSE.
LCHARG = .FALSE.
LDAU = .TRUE.
LDAUTYPE = 1
LDAUL = 
LDAUU = 
LDAUJ = 
